Conf_
1.0
13.800000191 0.000000000 0.000000000
0.000000000 13.899999619 0.000000000
0.000000000 0.000000000 5.115117073
C  H
4 8 
Cartesian
7.38460 6.84642 0.67896
7.14609 6.66493 3.16991
6.50924 7.20829 1.89532
6.54212 7.06592 4.47493
7.78462 5.81154 0.68637
7.25697 5.56028 3.07909
8.28667 7.44835 0.74254
8.21192 6.90919 3.22986
5.46067 6.96085 1.78923
5.56644 6.63326 4.63850
6.46871 8.26375 2.01251
6.37966 8.18621 4.41280
