Conf_
1.0
11.058891584 -2.875856941 0.000083011
-1.884631698 4.399940136 0.000129505
0.000029971 0.000101219 4.107304274
C  H  O
8 16 4
Cartesian
1.40045 0.73091 0.77343
2.41348 0.88439 1.96898
2.36488 1.99471 2.87426
1.33561 1.94866 3.93866
6.88935 -0.44632 0.81506
7.84474 -0.41184 2.00866
7.68936 0.84848 2.77444
6.79187 0.68644 3.97546
2.06041 0.05475 2.46427
4.45466 0.69254 1.66886
0.40886 0.37892 1.16314
1.84383 -0.03606 0.17569
3.46051 2.24174 3.18313
2.24071 2.96821 2.38660
1.40712 2.93415 0.46142
-0.00913 1.76726 2.48417
7.49065 -1.19747 2.58642
-1.24440 2.93010 1.93106
5.98656 -0.91369 1.06456
7.23194 -1.31591 0.37669
8.79237 0.80859 3.05093
7.42757 1.71815 2.02916
6.84250 1.79465 0.17398
4.77123 0.59024 3.87695
3.56843 0.78087 1.26301
-0.01531 2.05382 3.41986
9.24814 -0.44236 1.27429
5.47110 0.53030 3.11632
