Conf_
1.0
17.500000000 0.000000000 0.000000000
0.000000000 16.700000000 0.000000000
0.000000000 0.000000000 8.236212995
C  H  O
16 8 12
Cartesian
8.78380 9.13891 0.60921
8.78380 9.13891 4.72731
7.72900 10.16589 0.23872
7.72900 10.16589 4.35683
6.70030 8.75173 1.85433
6.70030 8.75173 5.97244
8.02858 8.09164 1.47994
8.02858 8.09164 5.59805
8.71804 7.55771 2.66548
8.71804 7.55771 6.78359
9.77644 6.53069 2.29785
9.77644 6.53069 6.41596
10.79671 7.95446 3.91300
10.79671 7.95446 8.03111
9.46699 8.60840 3.53547
9.46699 8.60840 7.65358
9.48823 9.77034 1.13193
9.48823 9.77034 5.25004
7.63568 7.20441 0.86173
7.63568 7.20441 4.97984
8.00060 6.92159 3.19771
8.00060 6.92159 7.31581
9.86115 9.50069 2.92279
9.86115 9.50069 7.04089
10.92426 6.77458 3.12788
10.92426 6.77458 7.24598
5.83277 8.38304 2.59131
5.83277 8.38304 6.70941
11.66614 8.32384 0.52807
11.66614 8.32384 4.64617
6.57102 9.92522 1.06395
6.57102 9.92522 5.18206
7.78979 11.11895 3.66327
7.78979 11.11895 7.78137
9.71712 5.57515 1.60768
9.71712 5.57515 5.72579
