Conf_
1.0
11.680650434 2.509095332 0.001425954
1.299498655 6.314331571 0.000507123
0.001100834 0.000490840 9.437192707
C  H  N
32 40 8
Cartesian
4.46977 4.30604 4.00317
3.49740 3.89415 8.74184
3.37960 4.90682 4.77568
3.75006 5.07706 0.24415
2.05952 3.85048 4.56016
2.57800 6.32528 9.33140
2.90306 6.28900 4.19178
5.01737 5.84174 9.33524
3.53735 5.03385 6.34359
3.50094 4.86961 1.74491
3.70398 3.82449 7.13276
4.37199 3.77780 2.53269
5.22452 3.60720 7.04055
5.64914 3.74683 1.63836
3.10017 2.62412 6.53392
3.84451 2.50146 2.34505
8.78502 3.85791 6.87603
8.76092 3.97426 2.16196
9.01117 5.15185 7.60131
9.21286 5.06660 3.02921
8.31669 6.58154 7.24054
7.94448 5.85426 2.91885
10.48477 5.42810 7.43255
10.26597 5.99618 3.02423
8.54428 4.73532 9.07859
9.61095 4.80173 4.57388
9.47516 4.01419 0.77728
8.80715 3.51878 5.38771
10.79313 4.77830 0.73558
9.95528 2.54852 5.59077
9.30770 2.62604 0.26580
7.57857 3.01559 4.75218
1.18950 4.06115 5.29923
1.98651 6.37608 0.91241
5.42244 4.96169 4.09436
4.02186 2.85023 9.06015
4.84316 3.39537 4.57858
2.47251 3.50935 9.16065
1.52976 3.95417 3.66981
1.78836 0.81361 8.87470
2.53397 2.90086 4.77905
2.06081 5.93892 8.44705
2.63106 5.54225 6.74908
2.49008 4.50210 1.82146
4.25996 5.66612 6.60333
3.72871 5.81163 2.25859
5.53709 3.74113 6.01931
6.46517 3.06451 1.79377
5.77004 4.32535 7.53644
5.33067 3.78068 0.55315
5.54334 2.65530 7.47868
6.05975 4.71718 1.77977
7.21319 6.41088 7.22260
7.26545 5.79481 3.90885
9.65604 3.34724 7.25682
9.04970 3.00261 2.55733
7.91660 3.32039 7.33779
7.69145 3.83900 2.02858
8.38653 7.12873 8.23256
8.24918 6.87759 2.91539
8.97631 7.07160 6.46305
7.38186 5.60491 2.06783
7.65636 4.07189 8.91555
9.32332 5.64146 5.27568
8.13076 5.58985 0.18371
10.67941 4.81998 4.93202
11.36678 4.52871 9.18315
11.63589 8.32358 4.62749
10.52324 5.73393 0.61117
10.71762 3.23608 5.78361
11.34006 4.57755 1.63288
11.21809 8.44337 6.60163
2.71367 1.49481 6.60723
3.12690 1.80574 1.77280
0.84622 0.87640 4.24822
6.02349 6.41064 9.05416
10.31317 7.90539 9.16354
6.61808 2.59074 4.17348
11.58396 5.67618 7.16471
10.98768 6.95827 3.17195
