Conf_
1.0
14.00000000 0.000000000 0.000000000
0.000000000 14.000000000 0.000000000
0.000000000 0.000000000 14.000000000
C  H
6 6 
Cartesian
8.55890 7.84368 5.65798
8.60338 6.46596 5.38863
7.51739 5.84625 4.70990
6.46157 6.59408 4.32738
6.38155 7.97185 4.73706
7.40775 8.60511 5.37600
9.36659 8.41956 6.15847
9.43310 5.86128 5.66989
7.68668 4.78084 4.52109
5.65708 6.06103 3.81934
5.40612 8.55659 4.54998
7.34768 9.66269 5.65303
