Conf_
1.0
14.972000122 0.000000000 0.000000000
0.000000000 14.441200256 0.000000000
0.000000000 0.000000000 10.070099831
C  H
6 6 
Cartesian
7.15772 6.90796 3.70738
8.49655 7.06409 4.08156
8.86257 7.27833 5.44345
7.83483 7.48492 6.36690
6.48291 7.46861 5.95803
6.09494 7.12333 4.65956
6.88588 6.61200 2.66386
9.32261 7.05300 3.35818
9.85768 7.33274 5.82494
8.14007 7.70736 7.43413
5.59270 7.74048 6.57363
5.11056 6.89243 4.27770
