Conf_
1.0
14.00000000 0.000000000 0.000000000
0.000000000 14.00000000 0.000000000
0.000000000 0.000000000 14.00000000
C  H
5 6 
Cartesian
5.98772 7.34059 5.75526
6.51567 6.15375 4.96886
7.74267 5.79966 5.44391
8.08943 6.74320 6.54484
7.13536 7.69623 6.71292
5.01341 7.19579 6.16161
5.82084 8.14234 4.98262
5.92264 5.63104 4.21809
8.38058 4.98860 5.03214
9.07074 6.69703 7.03447
7.17612 8.51020 7.43691
