Conf_
1.0
14.152600288 0.000000000 0.000000000
0.000000000 13.472399712 0.000000000
0.000000000 0.000000000 11.756600380
C  H
5 6 
Cartesian
7.51730 5.58112 5.71626
8.07340 6.72228 6.58143
7.30454 7.83089 6.39424
6.22891 7.51978 5.56016
6.22655 6.21600 5.18467
7.33949 4.55382 6.03578
8.20601 5.55121 4.81109
9.02703 6.69717 7.04804
7.39973 8.79259 6.82621
5.39204 8.21975 5.36513
5.46333 5.70920 4.64766
