Conf_
1.0
13.049095122 0.000000000 0.000000000
0.000000000 10.990650737 0.000000000
0.000000000 0.000000000 7.285502177
C H N O
17 11 1 8
Cartesian
7.60819 1.80687 1.86096
8.93274 1.55835 2.15587
9.54139 3.60749 6.68881
8.88471 5.67366 0.06682
10.14092 6.17744 0.02690
11.17918 5.30143 6.85562
11.79113 2.94254 6.27884
11.65007 0.73069 5.24269
11.30044 0.95256 3.79250
10.85595 3.97827 6.68026
5.42058 3.54408 0.55655
8.96112 3.60971 3.38775
7.64502 3.86361 3.11368
7.74602 6.53464 0.56040
6.97647 3.00331 2.22459
9.65174 2.44165 2.94849
6.01500 4.87611 0.03006
5.85046 2.79664 7.15585
9.52084 4.28975 4.00316
10.48478 0.24588 3.64503
7.10909 1.19773 1.13266
12.10893 0.60213 3.14442
9.39527 0.64327 1.63656
12.26346 5.64849 6.81982
10.34031 7.22778 0.32594
9.16877 2.58423 6.43573
4.33514 3.54404 0.36612
7.21774 4.71017 3.64234
8.56503 4.41891 7.03346
10.91637 2.26999 3.48028
5.76781 5.18018 6.17232
5.64243 3.15955 1.90216
12.92533 3.16856 5.92881
11.18761 1.71212 6.20756
11.98009 10.66556 5.66845
7.72057 7.74635 0.72413
6.68778 5.73499 0.90980
