Conf_
1.0
12.859654534 1.479775911 -0.001097043
0.610348114 5.805547336 0.000363343
-0.000485615 0.000475552 4.246712369
C  H
16 32 
Cartesian
4.04918 2.52464 1.61442
4.19400 3.70585 2.73937
5.22546 4.68127 2.10886
5.97352 5.45147 3.16438
3.14347 4.11122 3.74267
2.92908 2.96602 0.55616
1.96662 1.78012 4.18556
1.07713 1.15135 0.87416
10.30078 3.11576 1.53504
10.59295 4.29227 2.63582
11.44000 5.34693 2.19133
12.24017 6.15039 3.20113
9.41425 4.85938 3.62004
9.22315 3.74305 0.53713
8.31864 2.57240 4.22363
7.59075 1.86610 1.06325
6.18583 3.97707 1.73915
7.02327 5.54956 2.74882
6.26731 4.79649 4.05233
4.90445 0.63100 3.45352
5.05816 2.23035 1.19623
3.71914 1.43516 1.78607
4.76117 3.14244 3.42829
4.90395 5.48210 1.58674
2.13607 4.38782 3.06547
3.46012 4.94245 4.13508
2.34241 3.42120 1.41681
2.64005 1.13848 3.56569
1.50868 2.75510 3.67450
0.48059 0.25488 0.38023
0.21693 1.84497 0.95183
1.43779 0.72789 1.88457
12.20486 4.92609 1.64163
11.79378 1.51705 3.06341
0.60995 4.17172 3.07504
11.84765 5.91051 4.17559
11.13454 2.87309 0.89244
10.01608 2.11108 1.64808
11.18716 3.63109 3.41348
11.14315 5.94340 1.35318
8.49008 4.93356 2.96563
9.52883 5.93977 3.89168
8.60540 4.46539 1.23910
8.91882 1.81129 3.64434
7.82636 3.23542 3.61429
8.10303 6.56994 0.80454
6.58658 2.27136 0.99800
7.91904 1.88632 2.07020
