Conf_
1.0
14.700000000 0.000000000 0.000000000
0.000000000 19.100000000 0.000000000
0.000000000 0.000000000 3.997836136
C  H  N
6 14 2
Cartesian
7.13906 7.24167 1.46306
7.55840 8.67792 1.85344
6.52196 9.47288 2.71965
7.15501 10.40022 3.86217
8.18769 9.63781 0.75910
7.56496 11.86133 3.46659
8.20667 5.68480 0.44061
9.02178 6.55718 1.51161
8.68671 8.95643 0.04600
8.91447 10.35398 1.11856
8.44119 8.47979 2.57926
6.94061 6.73392 2.45298
6.17814 7.18309 0.82257
6.09354 10.22799 2.09167
5.72445 8.86035 3.04144
6.23470 10.64431 0.45563
7.99409 12.42237 0.33484
8.43318 11.83597 2.73309
6.58638 13.44951 2.50804
5.59549 12.57464 3.46927
6.40896 12.49430 2.83009
8.25700 6.59383 0.85423
