Conf_
1.0
21.389795829 0.000000000 0.000000000
0.000000000 16.150384778 0.000000000
0.000000000 0.000000000 4.387580995
C H N O
10 18 2 2
Cartesian
6.60324 8.38058 3.90721
14.23551 6.72179 3.74021
14.33456 9.14186 3.09998
12.24565 8.08579 3.01741
8.38446 9.91452 0.30615
10.03997 7.23444 2.52843
9.97316 7.53818 1.06477
10.85946 6.56135 0.26946
11.35453 6.92338 3.20204
8.52467 7.45239 0.62121
14.33173 9.52111 2.07095
14.32876 6.02965 2.93962
13.69533 6.22991 0.16798
15.21910 7.01739 4.11305
11.88414 6.06409 2.75796
9.49896 6.30561 2.55885
9.54856 8.01347 3.03788
5.87178 9.20084 4.20799
6.04157 7.45741 4.27735
15.42431 8.96512 3.22382
9.00317 9.91736 1.26822
7.50043 10.62674 0.49525
8.91769 10.28368 3.81467
10.50229 8.47182 0.93256
11.69662 6.43368 1.00524
10.45501 5.53729 0.11910
6.72993 8.35488 2.89700
13.91948 10.00117 3.70241
13.55988 7.93134 3.29727
7.88064 8.59109 0.17659
11.80302 9.21954 2.66283
7.97432 6.39067 0.57329
