Conf_
1.0
6.595609064 -0.010969976 0.022968268
-0.018009103 6.720323839 0.002000690
-0.069652123 -0.005921054 19.887594077
C  H  N  O
48 48 8 8
Cartesian
4.49136 6.56031 0.35838
4.74152 0.26084 1.69839
5.96989 6.51315 2.34260
6.05222 6.41887 3.84722
4.90178 0.02788 4.49832
4.81779 6.40126 5.90416
5.10934 0.27924 8.48008
4.42987 1.34444 9.15760
5.96082 2.95705 7.97040
5.32016 2.17102 6.83204
3.93175 0.64360 3.90049
3.91468 0.90139 2.52448
5.24392 3.47422 10.24345
5.01148 3.10435 11.68196
3.85199 3.54341 12.26102
3.65519 3.63651 13.72865
4.85989 3.37489 14.48587
5.05454 3.66664 15.92716
4.76995 2.98581 18.39290
5.37818 1.83513 19.06288
3.80654 0.27389 17.86817
4.25394 1.21084 16.75287
5.94783 2.87001 13.84001
5.98319 2.56652 12.42986
1.66169 3.06369 0.08120
1.51853 3.34919 1.57723
2.72380 3.80470 2.23859
2.72142 4.01464 3.74384
1.70174 3.49441 4.41543
1.88804 3.08015 5.97735
2.53804 3.75064 8.14168
2.06307 4.59100 9.35293
1.87514 6.49401 7.45210
1.18009 5.28851 6.94404
0.45945 3.30534 3.72444
0.38474 3.20955 2.38015
1.79772 0.30199 10.00127
1.69401 6.71099 11.47896
0.44768 6.25310 12.13250
0.32194 6.13064 13.58917
1.38162 6.50372 14.40126
1.16775 0.16441 15.84542
0.64808 6.34233 18.10074
1.07819 5.49513 19.35715
1.44941 3.69785 17.48930
2.06833 4.95754 16.92912
2.63390 6.70583 13.74246
2.75938 6.69710 12.34501
0.29801 6.30849 1.85530
0.44542 6.21304 4.29751
6.20919 6.50399 8.75446
4.38656 6.21833 8.37981
3.44463 1.63991 8.51460
3.91525 1.25523 10.05618
0.44129 2.62630 8.15797
5.77673 3.97235 7.50572
4.30371 2.45916 6.46636
5.68410 2.29845 5.81753
3.28373 1.19437 4.55614
3.29833 1.61335 2.01773
2.84699 3.77242 11.73104
2.72774 3.96870 14.01144
3.81977 3.55805 19.02992
5.36593 3.94653 18.51347
6.16820 1.68089 18.28982
6.02412 1.77836 0.10439
2.71172 0.35649 18.02847
4.24531 6.10869 17.61093
5.13019 0.86398 16.09021
3.45001 1.25254 16.04212
0.07793 2.48924 14.51804
0.16671 1.84714 11.96877
3.60531 4.11165 1.52874
3.62768 4.53901 4.20002
3.82748 3.85069 8.05222
2.19599 2.71870 8.31096
1.11513 4.24273 9.68363
2.94735 4.43474 9.88592
2.96627 0.16579 7.30747
1.16160 0.49521 7.62113
0.54139 5.14430 7.73339
0.59059 5.46636 6.00294
6.25613 3.04059 4.30427
6.06992 2.95319 1.77384
6.24446 5.85302 11.55313
5.90202 6.11365 13.85080
6.12931 6.25033 17.81454
0.91918 0.56080 18.51573
2.02083 5.97777 19.82495
0.09971 5.38714 0.14107
0.68853 2.89867 17.28296
2.44064 3.17129 17.58581
2.83693 4.96876 17.73665
2.64654 4.68756 15.83999
3.48385 6.62619 14.45497
3.77298 6.48332 12.05064
4.58904 2.71102 16.98566
5.26923 0.69641 6.99696
5.18399 2.57313 9.23482
4.49136 0.72373 19.16098
1.23609 5.96687 16.85625
1.99494 4.07435 6.81151
2.10322 5.94676 9.05203
1.27963 4.10608 19.00252
5.66442 4.64354 10.07473
4.76064 5.24031 6.22609
4.14074 5.36513 0.21072
5.29517 4.83180 16.28240
1.46375 1.52745 9.72075
2.30939 1.91328 5.89450
2.01146 1.92307 19.62757
0.61147 1.31453 15.85975
