Conf_
1.0
19.000000000 0.000000000 0.000000000
0.000000000 20.299999237 0.000000000
0.000000000 0.000000000 9.554780006
C  H
44 80 
Cartesian
8.25323 6.94265 2.27615
7.59204 6.98370 7.11925
7.25025 7.72504 3.19809
7.04794 7.99490 8.12511
7.32207 9.27529 3.28488
7.85128 9.34155 7.94818
6.03053 9.97554 3.67401
7.09701 10.46936 8.75786
6.11029 11.56128 3.81428
7.18393 11.87914 8.20734
4.96886 12.16783 3.15708
8.43560 12.58649 8.81108
5.03293 12.13085 1.64978
8.24034 14.07593 9.18390
4.09902 13.22732 0.95519
9.66635 14.74178 0.02007
10.59712 13.62374 0.37988
4.46794 14.71745 1.21838
5.07298 14.84965 2.63293
10.86798 12.71352 8.78222
4.64871 13.69658 3.59312
9.62694 12.54926 7.90237
7.05817 7.13804 4.65512
7.02617 7.55471 0.06277
8.11111 7.38948 5.69128
8.41440 7.56389 0.88550
9.33595 6.43311 5.45561
9.59898 6.83181 0.23842
10.98686 7.04479 0.76834
10.65055 6.95765 5.99760
11.24589 8.00736 5.09531
11.74969 8.24946 0.20967
13.19413 8.52353 0.70532
11.67368 9.31091 5.82443
13.41611 10.10000 0.89232
11.52075 10.51717 4.82636
14.91914 10.42522 0.68737
12.33341 11.70018 5.39276
15.82914 9.37342 1.24050
13.81743 11.48446 5.46858
15.73183 8.12815 0.44782
14.15829 10.04506 5.88232
14.36645 7.96546 9.38383
12.99497 9.39361 6.65673
6.08866 12.33157 1.37764
7.79472 14.68546 8.37311
9.60648 15.53055 0.80674
3.06665 12.97721 1.25666
4.15611 13.05797 9.41032
10.05472 15.28623 8.66370
10.13056 13.17570 1.23905
3.57258 15.35450 1.20854
11.49927 14.07065 0.77124
5.18379 14.99858 0.41513
6.19949 14.74157 2.60116
11.73929 13.14026 8.26443
4.84942 15.80445 3.12057
11.31851 11.73502 8.92549
5.16371 13.85847 4.54047
9.55430 13.44780 7.14317
3.58256 13.82301 3.85337
9.78572 11.67450 7.27308
9.21987 6.89835 2.77020
8.46514 6.63462 7.66767
7.90908 5.88613 2.21091
6.95880 6.11381 6.93019
6.30330 7.47604 2.70791
6.05166 8.32624 7.87023
8.08565 9.57714 4.06292
8.97303 9.35364 8.17579
7.65137 9.68651 2.34772
7.74485 9.55406 6.88917
5.24451 9.67955 2.93771
6.02823 10.19657 8.70358
5.73911 9.61310 4.63385
7.40455 10.45691 0.25824
6.31765 11.75519 4.86264
7.35967 11.90932 7.12052
7.03836 12.00341 3.33536
6.24857 12.50255 8.38540
4.10366 11.54765 3.51936
8.70745 11.94915 0.11635
4.78472 11.21754 1.15262
7.62642 14.15442 0.52483
6.75779 6.08504 4.61299
6.53155 6.60590 0.24383
6.15280 7.62684 5.11603
6.30116 8.21674 0.61346
8.51052 8.39492 5.60813
8.71901 8.57640 0.96847
9.04361 5.56251 6.01774
9.44013 5.78048 0.36797
9.51930 6.13079 4.44136
9.66559 6.97534 8.72670
10.96377 7.11522 1.88653
10.39440 7.40264 6.97222
11.50104 6.05144 0.49689
11.30313 6.03727 6.19810
11.99648 7.57832 4.44574
11.76706 8.30453 8.64490
10.45244 8.28803 4.37291
11.08423 8.99823 0.57698
13.37414 8.13312 1.75979
10.82758 9.32361 6.54124
13.19627 10.24680 1.96209
10.45490 10.79963 4.73648
11.87203 10.22966 3.86028
12.70654 10.71222 0.29923
15.16037 11.45748 0.97124
11.93690 11.95196 6.39878
15.20735 10.51737 9.17656
12.08259 12.62589 4.80769
15.61624 9.15756 2.33485
14.34989 12.18883 6.08857
16.81088 9.78603 1.40206
14.19012 11.63408 4.43354
16.48296 8.17529 9.14722
14.32704 9.48016 4.96616
16.06098 7.27759 1.02827
15.03461 10.00677 6.58082
14.48806 8.53254 8.40397
13.32485 8.44183 7.12092
14.17697 6.93341 9.08980
12.79221 10.03339 7.53104
