Conf_
1.0
15.400000000 0.000000000 0.000000000
0.000000000 14.700000000 0.000000000
0.000000000 0.000000000 5.276527977
C  H  N
4 10 2
Cartesian
8.20615 8.45805 0.06729
8.68287 7.45864 1.22486
7.63751 6.38579 3.17091
6.70315 6.74504 4.32480
8.68147 6.55706 0.65799
9.78284 7.71246 1.62645
6.77776 7.67678 1.84051
8.93635 8.51981 4.52048
7.99656 9.41195 0.53608
7.28041 5.43281 2.66764
8.66602 6.31390 3.65694
5.66998 6.77211 4.01567
6.80665 6.05462 5.12221
6.40697 8.75251 4.26385
6.83857 8.08139 4.91744
7.66562 7.48833 2.25187
