Conf_
1.0
10.000000000 0.000000000 0.000000000
0.000000000 10.000000000 0.000000000
0.000000000 0.000000000 10.000000000
H  C
2 2 
Cartesian
5.71657 2.70970 2.18757
2.41158 2.43184 2.70412
4.66589 2.60046 2.35586
3.46747 2.56649 2.57278
