Conf_
1.0
14.000000000 0.000000000 0.000000000
0.000000000 14.000000000 0.000000000
0.000000000 0.000000000 14.000000000
H  C
2 2 
Cartesian
2.42874 2.31809 2.51817
5.74402 2.86005 2.38819
3.48015 2.47990 2.40922
4.64949 2.68401 2.51820
