Conf_
1.0
13.200000000 0.000000000 0.000000000
0.000000000 15.700000000 0.000000000
0.000000000 0.000000000 8.497870170
C  H  O
12 4 6
Cartesian
5.67421 8.20085 1.54349
6.16056 9.25334 2.33054
7.17385 8.93730 3.31380
7.50108 7.47642 3.56322
7.07671 6.44541 2.80161
6.02638 6.76032 1.79003
7.49724 7.48891 5.79319
7.86998 8.57219 6.58096
6.94710 9.02958 7.55812
5.70427 8.19878 7.79727
5.28789 7.13484 7.04654
6.25369 6.66480 6.05316
5.87105 10.27346 2.13680
7.37234 5.41429 2.92889
8.75215 9.01709 6.30857
4.38126 6.66807 7.31635
8.26570 7.19352 4.70598
5.38083 5.93678 1.18112
7.87148 9.76941 3.86819
6.20038 5.60757 5.47814
4.92673 8.51514 0.44177
6.97642 10.10738 8.10416
