Conf_
1.0
15.300000000 0.000000000 0.000000000
0.000000000 16.900000000 0.000000000
0.000000000 0.000000000 9.768168970
C  H  O
16 24 10
Cartesian
6.93930 6.87572 0.60074
6.70641 5.60968 9.52542
8.09351 6.66703 1.58683
9.32410 7.53770 1.50275
9.49114 9.89309 2.14789
8.77418 10.85734 3.05035
6.49819 10.78633 3.90028
6.26305 9.58150 4.84293
6.26227 7.22121 5.21053
5.96706 5.89950 4.47298
7.33648 7.10182 6.29191
8.75802 7.47861 5.89786
9.50232 9.62828 6.86867
8.95225 10.45632 8.01973
6.69839 10.41125 9.01513
6.27380 9.12875 0.01967
9.10921 11.95402 2.71840
8.93279 10.72248 4.14715
5.48535 10.95018 3.38990
6.73096 11.65910 4.57274
6.02877 6.99388 1.16468
7.61564 5.44374 8.91554
5.88848 5.69379 8.83998
6.48546 4.77548 0.43249
8.46895 5.61143 1.52905
7.78649 6.79942 2.59991
9.60407 7.89208 0.52759
10.13062 6.96875 1.92677
5.32776 7.42570 5.72122
6.87896 5.55739 3.92366
5.21263 5.99955 3.72014
5.61532 5.17361 5.21395
7.36397 6.04114 6.65245
7.14717 7.67683 7.16253
8.86092 7.99292 4.95595
9.40793 6.62815 5.92688
9.18358 11.51786 7.83059
9.25450 10.13111 9.07359
5.77280 10.92573 8.65798
7.16395 11.01593 0.01556
9.17933 8.33542 7.10970
7.34991 10.65070 2.76068
10.03671 10.12223 5.88079
6.52608 8.35927 4.24441
7.50724 10.25293 7.85428
7.17578 8.09636 9.55121
10.16355 10.24403 1.16746
5.31401 9.07252 0.76980
5.69285 9.70292 5.94056
9.11264 8.65322 2.49648
